(set-info :source  loris-7.ddns.comp.nus.edu.sg/~project/hip/) 
;Variables declarations
(declare-fun c () Int)
(declare-fun b () Int)
(declare-fun a () Int)
(declare-fun am () Int)
(declare-fun bm () Int)
(declare-fun cm () Int)
(declare-fun m_3021 () Int)
(declare-fun c_primed () Int)
(declare-fun m_3002 () Int)
(declare-fun b_primed () Int)
(declare-fun m () Int)
(declare-fun a_primed () Int)
(declare-fun v_int_115_1981_primed () Int)
(declare-fun n_3022 () Int)
(declare-fun h_primed () Int)
(declare-fun h_3019 () Int)
(declare-fun n_3003 () Int)
(declare-fun n () Int)
(declare-fun bn () Int)
(declare-fun cn () Int)
(declare-fun an () Int)
(declare-fun d_primed () Int)
(declare-fun dm () Int)
(declare-fun an_2998 () Int)
(declare-fun d () Int)
;Relations declarations
;Axioms assertions
;Antecedent
(assert (<= 0 cm))
(assert (<= 0 bm))
(assert (<= 0 am))
(assert (<= cn (+ 1 bn)))
(assert (<= (+ 0 bn) (+ cn 1)))
(assert (= c_primed c))
(assert (= b_primed b))
(assert (= a_primed a))
(assert (= m am))
(assert (<= 0 m))
(assert (= m_3002 bm))
(assert (<= 0 m_3002))
(assert (= m_3021 cm))
(assert (<= 0 m_3021))
(assert (or (and (and (< c_primed 1) (= m_3021 0)) (= n_3022 0)) (and (and (<= 1 n_3022) (<= 1 m_3021)) (> c_primed 0))))
(assert (or (and (and (< b_primed 1) (= m_3002 0)) (= n_3003 0)) (and (and (<= 1 n_3003) (<= 1 m_3002)) (> b_primed 0))))
(assert (or (and (and (< a_primed 1) (= m 0)) (= n 0)) (and (and (<= 1 n) (<= 1 m)) (> a_primed 0))))
(assert (<= 0 n_3022))
(assert (= v_int_115_1981_primed n_3022))
(assert (<= 0 cn))
(assert (= n_3022 cn))
(assert (= h_primed (+ 1 h_3019)))
(assert (or (and (= h_3019 n) (>= n n_3003)) (and (= h_3019 n_3003) (< n n_3003))))
(assert (<= 0 n_3003))
(assert (<= 0 bn))
(assert (= n_3003 bn))
(assert (<= 0 n))
(assert (<= 0 an))
(assert (= n an))
(assert (or (and (= an bn) (>= bn cn)) (and (= an cn) (< bn cn))))
(assert (= an_2998 an))
(assert (= d_primed d))
(assert (or (and (and (< d 1) (= dm 0)) (= an_2998 0)) (and (and (<= 1 an_2998) (<= 1 dm)) (> d 0))))
;Negation of Consequence
(assert (not (or (= dm 0) (or (= an_2998 0) (< d 1)))))
(check-sat)